5
20
1 2 3
2 4 5
3 5 8
4 3 4
5 9 10
99999
20
1 18 25
2 15 24
3 10 15
99999
17
1 1 5
2 3 10
3 5 15
4 4 7
5 1 8
6 3 9
7 2 4
99999
60
1 5 30
2 10 40
3 15 45
4 22 77
5 25 90
99999
60
1 5 30
2 10 20
3 20 100
4 30 90
5 40 160
99999